58
100
80	2
78	1
77	2
76	2
75	1
74	2
73	3
71	1
70	3
69	5
68	4
66	3
64	2
62	1
60	1
59	1
58	1
57	2
56	2
52	2
51	1
50	1
49	2
48	1
47	1
45	3
43	1
42	3
41	3
40	1
39	2
37	1
36	1
35	1
34	3
33	1
32	1
31	2
30	2
29	2
28	1
27	2
26	2
25	1
24	3
23	1
21	2
20	1
19	1
18	1
17	1
16	1
15	1
14	1
13	2
12	2
11	1
10	2
